
Log started (V12.5.0.0) Mon Sep 21 17:53:29 2015

New value for default parallel thread count: 1
New value for mixed integer optimality gap tolerance: 0

Problem 'lp/corepb.lp' read.
Read time = 0.11 sec. (0.93 ticks)
Found incumbent of value 0.000000 after 0.01 sec. (0.56 ticks)
Tried aggregator 1 time.
MIP Presolve eliminated 24 rows and 24 columns.
MIP Presolve added 58 rows and 58 columns.
Reduced MIP has 35 rows, 22111 columns, and 22384 nonzeros.
Reduced MIP has 0 binaries, 22111 generals, 0 SOSs, and 0 indicators.
Presolve time = 0.06 sec. (11.44 ticks)
Probing time = 0.00 sec. (0.13 ticks)
MIP emphasis: balance optimality and feasibility.
MIP search method: dynamic search.
Parallel mode: none, using 1 thread.
Root relaxation solution time = 0.02 sec. (10.83 ticks)

        Nodes                                         Cuts/
   Node  Left     Objective  IInf  Best Integer    Best Bound    ItCnt     Gap

*     0+    0                            0.0000   2.01899e+11        1     --- 
      0     0   1.00865e+07     1        0.0000   1.00865e+07        1     --- 
*     0+    0                       1.00519e+07   1.00865e+07        1    0.34%
*     0+    0                       1.00523e+07   1.00865e+07        1    0.34%
      0     2   1.00865e+07     1   1.00523e+07   1.00865e+07        1    0.34%
Elapsed time = 0.23 sec. (134.47 ticks, tree = 0.00 MB, solutions = 3)
     85     9   1.00864e+07     1   1.00523e+07   1.00865e+07       86    0.34%
    172     9   1.00864e+07     1   1.00523e+07   1.00865e+07      173    0.34%
*   200+    8                       1.00593e+07   1.00865e+07      201    0.27%
*   200+    8                       1.00637e+07   1.00865e+07      201    0.23%
    260     9   1.00864e+07     1   1.00637e+07   1.00865e+07      261    0.23%
    359     9   1.00863e+07     1   1.00637e+07   1.00865e+07      360    0.23%
    450     9   1.00863e+07     1   1.00637e+07   1.00865e+07      451    0.23%
    550     9   1.00862e+07     1   1.00637e+07   1.00865e+07      551    0.23%
*   600+    8                       1.00664e+07   1.00865e+07      601    0.20%
*   600+    8                       1.00720e+07   1.00865e+07      601    0.14%
*   600+    8                       1.00723e+07   1.00865e+07      601    0.14%
*   600+    8                       1.00734e+07   1.00865e+07      601    0.13%
*   600+    8                       1.00739e+07   1.00865e+07      601    0.13%
*   600+    8                       1.00743e+07   1.00865e+07      601    0.12%
    625     9   1.00862e+07     1   1.00743e+07   1.00865e+07      626    0.12%
    730     9   1.00862e+07     1   1.00743e+07   1.00865e+07      731    0.12%
    850     9   1.00861e+07     1   1.00743e+07   1.00865e+07      851    0.12%
*  1400+    8                       1.00755e+07   1.00865e+07     1401    0.11%
   1411     9   1.00857e+07     1   1.00755e+07   1.00865e+07     1412    0.11%
Elapsed time = 3.02 sec. (3270.66 ticks, tree = 0.05 MB, solutions = 12)
*  1800+    8                       1.00764e+07   1.00865e+07     1801    0.10%
*  1995+    8                       1.00764e+07   1.00865e+07     1996    0.10%
*  1997+    9                       1.00767e+07   1.00865e+07     1998    0.10%
*  1998+    6                       1.00768e+07   1.00799e+07     2006    0.03%
   1998     7   1.00793e+07     4   1.00768e+07   1.00793e+07     2023    0.03%
Elapsed time = 4.11 sec. (4461.82 ticks, tree = 0.07 MB, solutions = 16)
*  2198+  168                       1.00769e+07   1.00793e+07     2303    0.02%
*  2198+  168                       1.00770e+07   1.00793e+07     2303    0.02%
   2253   186   1.00776e+07     3   1.00770e+07   1.00793e+07     2391    0.02%
*  2398+  289                       1.00772e+07   1.00792e+07     2546    0.02%
*  2498+  335                       1.00773e+07   1.00792e+07     2646    0.02%
   2503   342   1.00791e+07     3   1.00773e+07   1.00792e+07     2651    0.02%
*  2518+  274                       1.00776e+07   1.00792e+07     2667    0.02%
   2787   400   1.00777e+07     3   1.00776e+07   1.00792e+07     2950    0.02%
   3198   631   1.00781e+07     3   1.00776e+07   1.00792e+07     3419    0.02%
*  3388+  592                       1.00777e+07   1.00792e+07     3655    0.01%
   3656   673   1.00781e+07     2   1.00777e+07   1.00792e+07     3931    0.01%
   4216  1053   1.00780e+07     3   1.00777e+07   1.00792e+07     4593    0.01%
   4598  1236   1.00788e+07     3   1.00777e+07   1.00792e+07     5007    0.01%
   5086  1433   1.00785e+07     3   1.00777e+07   1.00792e+07     5533    0.01%
   5886  1911   1.00782e+07     3   1.00777e+07   1.00792e+07     6424    0.01%
   9100  3602   1.00788e+07     4   1.00777e+07   1.00791e+07     9748    0.01%
Elapsed time = 7.06 sec. (7598.44 ticks, tree = 5.18 MB, solutions = 22)
* 11698+ 4810                       1.00777e+07   1.00791e+07    12291    0.01%
  11698  4810    infeasible         1.00777e+07   1.00791e+07    12291    0.01%
* 12200+ 2083                       1.00777e+07   1.00791e+07    12836    0.01%
  13139  1422   1.00789e+07     3   1.00777e+07   1.00791e+07    13804    0.01%
  16540  1420   1.00778e+07     2   1.00777e+07   1.00789e+07    17564    0.01%
  21594  2348   1.00784e+07     3   1.00777e+07   1.00787e+07    22930    0.01%
  28112  1458        cutoff         1.00777e+07   1.00782e+07    30147    0.00%
  34615  1425   1.00781e+07     2   1.00777e+07   1.00781e+07    37290    0.00%
  41231  1814   1.00779e+07     2   1.00777e+07   1.00780e+07    44609    0.00%
* 45838   450      integral     0   1.00778e+07   1.00778e+07    49051    0.00%

Mixed integer rounding cuts applied:  3

Root node processing (before b&c):
  Real time             =    0.17 sec. (120.77 ticks)
Sequential b&c:
  Real time             =   13.84 sec. (14916.83 ticks)
                          ------------
Total (root+branch&cut) =   14.01 sec. (15037.61 ticks)

Solution pool: 25 solutions saved.

MIP - Integer optimal solution:  Objective =  1.0077782000e+07
Solution time =   14.08 sec.  Iterations = 49398  Nodes = 46492
Deterministic time = 15051.80 ticks  (1069.03 ticks/sec)


Incumbent solution
Variable Name           Solution Value
x(1548)                       1.000000
x(8558)                       2.000000
x(14995)                      1.000000
All other variables in the range 1-22077 are 0.

Problem 'lp/exnsd16.lp' read.
Read time = 0.11 sec. (0.08 ticks)
Found incumbent of value 0.000000 after 0.00 sec. (0.05 ticks)
Tried aggregator 1 time.
MIP Presolve eliminated 20 rows and 75 columns.
MIP Presolve added 45 rows and 45 columns.
Reduced MIP has 26 rows, 1970 columns, and 2056 nonzeros.
Reduced MIP has 0 binaries, 1970 generals, 0 SOSs, and 0 indicators.
Presolve time = 0.01 sec. (1.66 ticks)
Probing time = 0.00 sec. (0.01 ticks)
MIP emphasis: balance optimality and feasibility.
MIP search method: dynamic search.
Parallel mode: none, using 1 thread.
Root relaxation solution time = 0.00 sec. (0.79 ticks)

        Nodes                                         Cuts/
   Node  Left     Objective  IInf  Best Integer    Best Bound    ItCnt     Gap

*     0+    0                            0.0000   1.89212e+09        2     --- 
      0     0  1029726.8946     1        0.0000  1029726.8946        2     --- 
*     0+    0                      1029471.0000  1029726.8946        2    0.02%
      0     0  1029719.4197     1  1029471.0000    MIRcuts: 1        3    0.02%
      0     0  1029701.1768     3  1029471.0000    MIRcuts: 1        5    0.02%
*     0+    0                      1029638.0000  1029701.1768        5    0.01%

Repeating presolve.
Tried aggregator 1 time.
MIP Presolve eliminated 23 rows and 1457 columns.
Reduced MIP has 3 rows, 513 columns, and 519 nonzeros.
Reduced MIP has 356 binaries, 157 generals, 0 SOSs, and 0 indicators.
Presolve time = 0.00 sec. (0.65 ticks)
Probing time = 0.00 sec. (0.27 ticks)
Tried aggregator 1 time.
Presolve time = 0.00 sec. (0.25 ticks)
Represolve time = 0.00 sec. (1.79 ticks)
Probing time = 0.00 sec. (0.27 ticks)
MIP emphasis: balance optimality and feasibility.
MIP search method: dynamic search.
Parallel mode: none, using 1 thread.
Root relaxation solution time = 0.00 sec. (0.46 ticks)

        Nodes                                         Cuts/
   Node  Left     Objective  IInf  Best Integer    Best Bound    ItCnt     Gap

*     0+    0                      1029638.0000  1029701.1768        9    0.01%
      0     0  1029701.1768     3  1029638.0000  1029701.1768        9    0.01%
      0     2  1029701.1768     3  1029638.0000  1029700.5855        9    0.01%
Elapsed time = 0.06 sec. (53.67 ticks, tree = 0.00 MB, solutions = 3)
*   470    18      integral     0  1029680.0000  1029698.3634      452    0.00%

Mixed integer rounding cuts applied:  2

Root node processing (before b&c):
  Real time             =    0.05 sec. (51.93 ticks)
Sequential b&c:
  Real time             =    0.11 sec. (92.57 ticks)
                          ------------
Total (root+branch&cut) =    0.16 sec. (144.51 ticks)

Solution pool: 4 solutions saved.

MIP - Integer optimal solution:  Objective =  1.0296800000e+06
Solution time =    0.17 sec.  Iterations = 1215  Nodes = 1308
Deterministic time = 146.30 ticks  (848.10 ticks/sec)


Incumbent solution
Variable Name           Solution Value
x(288)                      156.000000
x(987)                        1.000000
All other variables in the range 1-2000 are 0.

Problem 'lp/exnsd18.lp' read.
Read time = 0.00 sec. (0.08 ticks)
Found incumbent of value 0.000000 after 0.00 sec. (0.05 ticks)
Tried aggregator 1 time.
MIP Presolve eliminated 14 rows and 58 columns.
MIP Presolve added 41 rows and 41 columns.
Reduced MIP has 28 rows, 1983 columns, and 2061 nonzeros.
Reduced MIP has 0 binaries, 1983 generals, 0 SOSs, and 0 indicators.
Presolve time = 0.00 sec. (1.66 ticks)
Probing time = 0.00 sec. (0.01 ticks)
MIP emphasis: balance optimality and feasibility.
MIP search method: dynamic search.
Parallel mode: none, using 1 thread.
Root relaxation solution time = 0.00 sec. (0.84 ticks)

        Nodes                                         Cuts/
   Node  Left     Objective  IInf  Best Integer    Best Bound    ItCnt     Gap

*     0+    0                            0.0000   1.89363e+09        2     --- 
      0     0  1112265.1422     1        0.0000  1112265.1422        2     --- 
*     0+    0                      1111867.0000  1112265.1422        2    0.04%
*     0+    0                      1112116.0000  1112265.1422        2    0.01%

Repeating presolve.
Tried aggregator 1 time.
MIP Presolve eliminated 18 rows and 1750 columns.
Reduced MIP has 10 rows, 233 columns, and 257 nonzeros.
Reduced MIP has 174 binaries, 59 generals, 0 SOSs, and 0 indicators.
Presolve time = 0.00 sec. (0.65 ticks)
Probing time = 0.00 sec. (0.21 ticks)
Tried aggregator 1 time.
Presolve time = 0.00 sec. (0.20 ticks)
Represolve time = 0.00 sec. (1.31 ticks)
Probing time = 0.00 sec. (0.21 ticks)
MIP emphasis: balance optimality and feasibility.
MIP search method: dynamic search.
Parallel mode: none, using 1 thread.
Root relaxation solution time = 0.00 sec. (0.14 ticks)

        Nodes                                         Cuts/
   Node  Left     Objective  IInf  Best Integer    Best Bound    ItCnt     Gap

*     0+    0                      1112116.0000  1112265.1422        3    0.01%
      0     0  1112265.1422     1  1112116.0000  1112265.1422        3    0.01%
      0     2  1112265.1422     1  1112116.0000  1112263.9262        3    0.01%
Elapsed time = 0.03 sec. (38.60 ticks, tree = 0.00 MB, solutions = 3)
*  1000+  315                      1112125.0000  1112248.1705      839    0.01%
   1920   533  1112133.7778     2  1112125.0000  1112133.7502     1600    0.00%
Elapsed time = 0.13 sec. (108.77 ticks, tree = 0.27 MB, solutions = 4)
*  1958     0      integral     0  1112131.0000  1112131.0000     1693    0.00%

Mixed integer rounding cuts applied:  12
Gomory fractional cuts applied:  1

Root node processing (before b&c):
  Real time             =    0.03 sec. (36.84 ticks)
Sequential b&c:
  Real time             =    0.10 sec. (72.53 ticks)
                          ------------
Total (root+branch&cut) =    0.13 sec. (109.37 ticks)

Solution pool: 5 solutions saved.

MIP - Integer optimal solution:  Objective =  1.1121310000e+06
Solution time =    0.13 sec.  Iterations = 1693  Nodes = 1959
Deterministic time = 111.17 ticks  (849.91 ticks/sec)


Incumbent solution
Variable Name           Solution Value
x(353)                        0.000000
x(505)                       -0.000000
x(1089)                       0.000000
x(1423)                     902.000000
x(1445)                      -0.000000
x(1531)                       1.000000
All other variables in the range 1-2000 are 0.

Problem 'lp/exnsd20.lp' read.
Read time = 0.00 sec. (0.08 ticks)
Found incumbent of value 0.000000 after 0.00 sec. (0.05 ticks)
Tried aggregator 1 time.
MIP Presolve eliminated 17 rows and 65 columns.
MIP Presolve added 41 rows and 41 columns.
Reduced MIP has 25 rows, 1976 columns, and 2049 nonzeros.
Reduced MIP has 0 binaries, 1976 generals, 0 SOSs, and 0 indicators.
Presolve time = 0.00 sec. (1.66 ticks)
Probing time = 0.00 sec. (0.01 ticks)
MIP emphasis: balance optimality and feasibility.
MIP search method: dynamic search.
Parallel mode: none, using 1 thread.
Root relaxation solution time = 0.00 sec. (1.99 ticks)

        Nodes                                         Cuts/
   Node  Left     Objective  IInf  Best Integer    Best Bound    ItCnt     Gap

*     0+    0                            0.0000   1.86859e+09        2     --- 
      0     0  1026166.4348     1        0.0000  1026166.4348        2     --- 
*     0+    0                      1025687.0000  1026166.4348        2    0.05%
      0     0  1026094.6514     2  1025687.0000    MIRcuts: 1        6    0.04%
*     0+    0                      1026080.0000  1026094.6514        6    0.00%

Repeating presolve.
Tried aggregator 2 times.
MIP Presolve eliminated 23 rows and 1901 columns.
Aggregator did 1 substitutions.
Reduced MIP has 1 rows, 74 columns, and 74 nonzeros.
Reduced MIP has 46 binaries, 28 generals, 0 SOSs, and 0 indicators.
Presolve time = 0.00 sec. (0.73 ticks)
Probing time = 0.00 sec. (0.03 ticks)
Tried aggregator 1 time.
Presolve time = 0.00 sec. (0.06 ticks)
Represolve time = 0.00 sec. (1.05 ticks)
Probing time = 0.00 sec. (0.03 ticks)
MIP emphasis: balance optimality and feasibility.
MIP search method: dynamic search.
Parallel mode: none, using 1 thread.
Root relaxation solution time = 0.00 sec. (0.04 ticks)

        Nodes                                         Cuts/
   Node  Left     Objective  IInf  Best Integer    Best Bound    ItCnt     Gap

*     0+    0                      1026080.0000  1026094.6514        9    0.00%
      0     0  1026094.6514     2  1026080.0000  1026094.6514        9    0.00%
      0     2  1026094.6514     2  1026080.0000  1026094.6360        9    0.00%
Elapsed time = 0.03 sec. (41.36 ticks, tree = 0.00 MB, solutions = 3)
*   120+   10                      1026086.0000  1026091.2035       87    0.00%

Mixed integer rounding cuts applied:  1

Root node processing (before b&c):
  Real time             =    0.02 sec. (39.64 ticks)
Sequential b&c:
  Real time             =    0.01 sec. (2.56 ticks)
                          ------------
Total (root+branch&cut) =    0.03 sec. (42.20 ticks)

Solution pool: 4 solutions saved.

MIP - Integer optimal solution:  Objective =  1.0260860000e+06
Solution time =    0.03 sec.  Iterations = 158  Nodes = 241
Deterministic time = 43.99 ticks  (1311.71 ticks/sec)


Incumbent solution
Variable Name           Solution Value
x(478)                      209.000000
x(555)                        1.000000
x(1890)                       1.000000
All other variables in the range 1-2000 are 0.

Problem 'lp/exnsd26.lp' read.
Read time = 0.00 sec. (0.08 ticks)
Found incumbent of value 0.000000 after 0.00 sec. (0.05 ticks)
Tried aggregator 1 time.
MIP Presolve eliminated 19 rows and 66 columns.
MIP Presolve added 50 rows and 50 columns.
Reduced MIP has 32 rows, 1984 columns, and 2075 nonzeros.
Reduced MIP has 0 binaries, 1984 generals, 0 SOSs, and 0 indicators.
Presolve time = 0.00 sec. (1.67 ticks)
Probing time = 0.00 sec. (0.01 ticks)
MIP emphasis: balance optimality and feasibility.
MIP search method: dynamic search.
Parallel mode: none, using 1 thread.
Root relaxation solution time = 0.00 sec. (4.28 ticks)

        Nodes                                         Cuts/
   Node  Left     Objective  IInf  Best Integer    Best Bound    ItCnt     Gap

*     0+    0                            0.0000   1.84593e+09        2     --- 
      0     0  1027596.7806     1        0.0000  1027596.7806        2     --- 
*     0+    0                      1026884.0000  1027596.7806        2    0.07%
      0     0  1027570.7740     2  1026884.0000    MIRcuts: 1        5    0.07%
*     0+    0                      1027486.0000  1027570.7740        5    0.01%
*     0+    0                      1027561.0000  1027570.7740        5    0.00%

Repeating presolve.
Tried aggregator 1 time.
MIP Presolve eliminated 31 rows and 1944 columns.
Reduced MIP has 1 rows, 40 columns, and 40 nonzeros.
Reduced MIP has 23 binaries, 17 generals, 0 SOSs, and 0 indicators.
Presolve time = 0.00 sec. (0.54 ticks)
Probing time = 0.00 sec. (0.01 ticks)
Tried aggregator 1 time.
Presolve time = 0.00 sec. (0.03 ticks)
Represolve time = 0.00 sec. (0.81 ticks)
Probing time = 0.00 sec. (0.01 ticks)
MIP emphasis: balance optimality and feasibility.
MIP search method: dynamic search.
Parallel mode: none, using 1 thread.
Root relaxation solution time = 0.00 sec. (0.02 ticks)

        Nodes                                         Cuts/
   Node  Left     Objective  IInf  Best Integer    Best Bound    ItCnt     Gap

*     0+    0                      1027561.0000  1027570.7740        9    0.00%
      0     0  1027570.7740     2  1027561.0000  1027570.7740        9    0.00%
      0     1  1027570.7740     2  1027561.0000  1027570.7102        9    0.00%
Elapsed time = 0.04 sec. (65.63 ticks, tree = 0.00 MB, solutions = 4)
*   780+  122                      1027564.0000  1027567.4664      709    0.00%

Mixed integer rounding cuts applied:  1

Root node processing (before b&c):
  Real time             =    0.03 sec. (63.91 ticks)
Sequential b&c:
  Real time             =    0.03 sec. (10.33 ticks)
                          ------------
Total (root+branch&cut) =    0.06 sec. (74.24 ticks)

Solution pool: 5 solutions saved.

MIP - Integer optimal solution:  Objective =  1.0275640000e+06
Solution time =    0.07 sec.  Iterations = 1067  Nodes = 1241
Deterministic time = 76.05 ticks  (1139.50 ticks/sec)


Incumbent solution
Variable Name           Solution Value
x(698)                        1.000000
x(989)                        2.000000
x(1341)                     107.000000
All other variables in the range 1-2000 are 0.

Problem 'lp/exnsdbis10.lp' read.
Read time = 0.00 sec. (0.08 ticks)
Found incumbent of value 0.000000 after 0.00 sec. (0.05 ticks)
Tried aggregator 1 time.
MIP Presolve eliminated 17 rows and 82 columns.
MIP Presolve added 44 rows and 44 columns.
Reduced MIP has 28 rows, 1962 columns, and 2039 nonzeros.
Reduced MIP has 0 binaries, 1962 generals, 0 SOSs, and 0 indicators.
Presolve time = 0.00 sec. (1.59 ticks)
Probing time = 0.00 sec. (0.01 ticks)
MIP emphasis: balance optimality and feasibility.
MIP search method: dynamic search.
Parallel mode: none, using 1 thread.
Root relaxation solution time = 0.00 sec. (0.75 ticks)

        Nodes                                         Cuts/
   Node  Left     Objective  IInf  Best Integer    Best Bound    ItCnt     Gap

*     0+    0                            0.0000   1.82407e+09        2     --- 
      0     0  1028081.5041     1        0.0000  1028081.5041        2     --- 
*     0+    0                      1027570.0000  1028081.5041        2    0.05%
      0     0  1028045.7470     2  1027570.0000    MIRcuts: 1        4    0.05%
      0     0  1028042.3099     3  1027570.0000    MIRcuts: 1        5    0.05%
      0     0  1028039.5946     2  1027570.0000    MIRcuts: 1        6    0.05%
*     0+    0                      1028021.0000  1028039.5946        6    0.00%
*     0+    0                      1028027.0000  1028039.5946        6    0.00%

Repeating presolve.
Tried aggregator 1 time.
MIP Presolve eliminated 27 rows and 1921 columns.
Reduced MIP has 1 rows, 41 columns, and 41 nonzeros.
Reduced MIP has 24 binaries, 17 generals, 0 SOSs, and 0 indicators.
Presolve time = 0.00 sec. (0.53 ticks)
Probing time = 0.00 sec. (0.01 ticks)
Tried aggregator 1 time.
Presolve time = 0.00 sec. (0.03 ticks)
Represolve time = 0.00 sec. (0.86 ticks)
Probing time = 0.00 sec. (0.01 ticks)
MIP emphasis: balance optimality and feasibility.
MIP search method: dynamic search.
Parallel mode: none, using 1 thread.
Root relaxation solution time = 0.00 sec. (0.03 ticks)

        Nodes                                         Cuts/
   Node  Left     Objective  IInf  Best Integer    Best Bound    ItCnt     Gap

*     0+    0                      1028027.0000  1028039.5946        8    0.00%
      0     0  1028039.5946     2  1028027.0000  1028039.5946        8    0.00%
*     0+    0                      1028035.0000  1028039.5946        8    0.00%

Repeating presolve.
Tried aggregator 1 time.
MIP Presolve eliminated 0 rows and 34 columns.
Reduced MIP has 1 rows, 7 columns, and 7 nonzeros.
Reduced MIP has 4 binaries, 3 generals, 0 SOSs, and 0 indicators.
Presolve time = 0.00 sec. (0.02 ticks)
Probing time = 0.00 sec. (0.00 ticks)
Tried aggregator 1 time.
Presolve time = 0.00 sec. (0.01 ticks)
Represolve time = 0.00 sec. (0.29 ticks)
Probing time = 0.00 sec. (0.00 ticks)
MIP emphasis: balance optimality and feasibility.
MIP search method: dynamic search.
Parallel mode: none, using 1 thread.
Root relaxation solution time = 0.00 sec. (0.01 ticks)

        Nodes                                         Cuts/
   Node  Left     Objective  IInf  Best Integer    Best Bound    ItCnt     Gap

*     0+    0                      1028035.0000  1028039.5946       10    0.00%
      0     0  1028039.5946     2  1028035.0000  1028039.5946       10    0.00%
      0     2  1028039.5946     2  1028035.0000  1028039.5536       10    0.00%
Elapsed time = 0.04 sec. (48.06 ticks, tree = 0.00 MB, solutions = 5)

Mixed integer rounding cuts applied:  2

Root node processing (before b&c):
  Real time             =    0.03 sec. (46.43 ticks)
Sequential b&c:
  Real time             =    0.00 sec. (0.81 ticks)
                          ------------
Total (root+branch&cut) =    0.04 sec. (47.23 ticks)

Solution pool: 5 solutions saved.

MIP - Integer optimal solution:  Objective =  1.0280350000e+06
Solution time =    0.04 sec.  Iterations = 229  Nodes = 293
Deterministic time = 48.96 ticks  (1146.14 ticks/sec)


Incumbent solution
Variable Name           Solution Value
x(804)                        1.000000
x(1129)                      88.000000
x(1504)                      46.000000
All other variables in the range 1-2000 are 0.

Problem 'lp/exnsdbis18.lp' read.
Read time = 0.00 sec. (0.08 ticks)
Found incumbent of value 0.000000 after 0.00 sec. (0.05 ticks)
Tried aggregator 1 time.
MIP Presolve eliminated 21 rows and 81 columns.
MIP Presolve added 43 rows and 43 columns.
Reduced MIP has 23 rows, 1962 columns, and 2040 nonzeros.
Reduced MIP has 0 binaries, 1962 generals, 0 SOSs, and 0 indicators.
Presolve time = 0.00 sec. (1.65 ticks)
Probing time = 0.00 sec. (0.01 ticks)
MIP emphasis: balance optimality and feasibility.
MIP search method: dynamic search.
Parallel mode: none, using 1 thread.
Root relaxation solution time = 0.00 sec. (4.88 ticks)

        Nodes                                         Cuts/
   Node  Left     Objective  IInf  Best Integer    Best Bound    ItCnt     Gap

*     0+    0                            0.0000   1.84049e+09        2     --- 
      0     0  1037242.6350     1        0.0000  1037242.6350        2     --- 
*     0+    0                      1036587.0000  1037242.6350        2    0.06%
      0     0  1037158.3776     2  1036587.0000    MIRcuts: 1        4    0.06%
*     0+    0                      1037115.0000  1037158.3776        4    0.00%
*     0+    0                      1037136.0000  1037158.3776        4    0.00%

Repeating presolve.
Tried aggregator 1 time.
MIP Presolve eliminated 22 rows and 1922 columns.
Reduced MIP has 1 rows, 40 columns, and 40 nonzeros.
Reduced MIP has 15 binaries, 25 generals, 0 SOSs, and 0 indicators.
Presolve time = 0.00 sec. (0.53 ticks)
Probing time = 0.00 sec. (0.01 ticks)
Tried aggregator 1 time.
Presolve time = 0.00 sec. (0.03 ticks)
Represolve time = 0.00 sec. (0.82 ticks)
Probing time = 0.00 sec. (0.01 ticks)
MIP emphasis: balance optimality and feasibility.
MIP search method: dynamic search.
Parallel mode: none, using 1 thread.
Root relaxation solution time = 0.00 sec. (0.03 ticks)

        Nodes                                         Cuts/
   Node  Left     Objective  IInf  Best Integer    Best Bound    ItCnt     Gap

*     0+    0                      1037136.0000  1037158.3776        8    0.00%
      0     0  1037158.3776     2  1037136.0000  1037158.3776        8    0.00%
*     0+    0                      1037147.0000  1037158.3776        8    0.00%

Repeating presolve.
Tried aggregator 1 time.
MIP Presolve eliminated 0 rows and 15 columns.
Reduced MIP has 1 rows, 25 columns, and 25 nonzeros.
Reduced MIP has 11 binaries, 14 generals, 0 SOSs, and 0 indicators.
Presolve time = 0.00 sec. (0.02 ticks)
Probing time = 0.00 sec. (0.00 ticks)
Tried aggregator 1 time.
Presolve time = 0.00 sec. (0.02 ticks)
Represolve time = 0.00 sec. (0.31 ticks)
Probing time = 0.00 sec. (0.00 ticks)
MIP emphasis: balance optimality and feasibility.
MIP search method: dynamic search.
Parallel mode: none, using 1 thread.
Root relaxation solution time = 0.00 sec. (0.02 ticks)

        Nodes                                         Cuts/
   Node  Left     Objective  IInf  Best Integer    Best Bound    ItCnt     Gap

*     0+    0                      1037147.0000  1037158.3776       12    0.00%
      0     0  1037158.3776     2  1037147.0000  1037158.3776       12    0.00%
      0     1  1037158.3776     2  1037147.0000  1037158.3260       12    0.00%
Elapsed time = 0.03 sec. (46.34 ticks, tree = 0.00 MB, solutions = 5)
*    20+    7                      1037156.0000  1037157.6687       39    0.00%

Mixed integer rounding cuts applied:  1

Root node processing (before b&c):
  Real time             =    0.03 sec. (44.64 ticks)
Sequential b&c:
  Real time             =    0.00 sec. (0.28 ticks)
                          ------------
Total (root+branch&cut) =    0.03 sec. (44.92 ticks)

Solution pool: 6 solutions saved.

MIP - Integer optimal solution:  Objective =  1.0371560000e+06
Solution time =    0.03 sec.  Iterations = 54  Nodes = 40
Deterministic time = 46.72 ticks  (1418.45 ticks/sec)


Incumbent solution
Variable Name           Solution Value
x(123)                        6.000000
x(171)                        1.000000
x(1424)                     125.000000
x(1981)                       6.000000
All other variables in the range 1-2000 are 0.

Problem 'lp/exnsds12.lp' read.
Read time = 0.13 sec. (0.84 ticks)
Found incumbent of value 0.000000 after 0.00 sec. (0.50 ticks)
Tried aggregator 1 time.
MIP Presolve eliminated 17 rows and 469 columns.
MIP Presolve added 57 rows and 57 columns.
Reduced MIP has 41 rows, 19588 columns, and 19703 nonzeros.
Reduced MIP has 0 binaries, 19588 generals, 0 SOSs, and 0 indicators.
Presolve time = 0.05 sec. (15.05 ticks)
Probing time = 0.00 sec. (0.11 ticks)
MIP emphasis: balance optimality and feasibility.
MIP search method: dynamic search.
Parallel mode: none, using 1 thread.
Root relaxation solution time = 0.01 sec. (7.04 ticks)

        Nodes                                         Cuts/
   Node  Left     Objective  IInf  Best Integer    Best Bound    ItCnt     Gap

*     0+    0                            0.0000   6.43839e+10        1     --- 
      0     0  3793980.8712     1        0.0000  3793980.8712        1     --- 
*     0+    0                      3792588.0000  3793980.8712        1    0.04%
*     0+    0                      3793336.0000  3793980.8712        1    0.02%

Repeating presolve.
Tried aggregator 1 time.
MIP Presolve eliminated 8 rows and 18223 columns.
Reduced MIP has 33 rows, 1365 columns, and 1464 nonzeros.
Reduced MIP has 656 binaries, 709 generals, 0 SOSs, and 0 indicators.
Presolve time = 0.01 sec. (5.80 ticks)
Probing time = 0.00 sec. (0.52 ticks)
Tried aggregator 1 time.
Presolve time = 0.00 sec. (0.75 ticks)
Represolve time = 0.01 sec. (11.97 ticks)
Probing time = 0.00 sec. (0.52 ticks)
MIP emphasis: balance optimality and feasibility.
MIP search method: dynamic search.
Parallel mode: none, using 1 thread.
Root relaxation solution time = 0.00 sec. (1.05 ticks)

        Nodes                                         Cuts/
   Node  Left     Objective  IInf  Best Integer    Best Bound    ItCnt     Gap

*     0+    0                      3793336.0000  3793980.8712        2    0.02%
      0     0  3793980.8712     1  3793336.0000  3793980.8712        2    0.02%
*     0+    0                      3793694.0000  3793980.8712        2    0.01%
*     0+    0                      3793702.0000  3793980.8712        2    0.01%

Repeating presolve.
Tried aggregator 1 time.
MIP Presolve eliminated 4 rows and 728 columns.
Reduced MIP has 29 rows, 637 columns, and 720 nonzeros.
Reduced MIP has 278 binaries, 359 generals, 0 SOSs, and 0 indicators.
Presolve time = 0.00 sec. (0.57 ticks)
Probing time = 0.00 sec. (0.26 ticks)
Tried aggregator 1 time.
Presolve time = 0.00 sec. (0.38 ticks)
Represolve time = 0.00 sec. (3.60 ticks)
Probing time = 0.00 sec. (0.26 ticks)
MIP emphasis: balance optimality and feasibility.
MIP search method: dynamic search.
Parallel mode: none, using 1 thread.
Root relaxation solution time = 0.00 sec. (0.49 ticks)

        Nodes                                         Cuts/
   Node  Left     Objective  IInf  Best Integer    Best Bound    ItCnt     Gap

*     0+    0                      3793702.0000  3793980.8712        3    0.01%
      0     0  3793980.8712     1  3793702.0000  3793980.8712        3    0.01%
*     0+    0                      3793703.0000  3793980.8712        3    0.01%
      0     2  3793980.8712     1  3793703.0000  3793980.8467        3    0.01%
Elapsed time = 0.15 sec. (120.00 ticks, tree = 0.00 MB, solutions = 5)
*   200+  106                      3793952.0000  3793980.5354      203    0.00%
*  1377     0      integral     0  3793952.0000                   1274    0.00%
Elapsed time = 0.27 sec. (247.69 ticks, tree = 0.00 MB, solutions = 6)

Mixed integer rounding cuts applied:  1
Gomory fractional cuts applied:  1

Root node processing (before b&c):
  Real time             =    0.10 sec. (104.08 ticks)
Sequential b&c:
  Real time             =    0.11 sec. (128.43 ticks)
                          ------------
Total (root+branch&cut) =    0.22 sec. (232.52 ticks)

Solution pool: 7 solutions saved.

MIP - Integer optimal solution:  Objective =  3.7939520000e+06
Solution time =    0.27 sec.  Iterations = 1274  Nodes = 1377
Deterministic time = 249.03 ticks  (928.22 ticks/sec)


Incumbent solution
Variable Name           Solution Value
x(10333)                     76.000000
x(13713)                    552.000000
All other variables in the range 1-20000 are 0.

